c This Formular is generated by mcnf
c
c    horn? no 
c    forced? no 
c    mixed sat? no 
c    clause length = 3 
c
p cnf 20  91 
 -2 13 -8 0
5 -3 12 0
-15 6 13 0
18 -4 3 0
-9 15 -7 0
17 -16 -1 0
12 3 -17 0
-8 -19 20 0
-9 -12 7 0
15 8 1 0
-14 20 -7 0
-2 4 6 0
-19 9 2 0
9 -10 -14 0
-3 -1 -17 0
-10 6 -15 0
-2 6 -20 0
4 -5 20 0
-9 5 -1 0
-14 2 10 0
-20 7 -1 0
%
0

71 93 49 16 73 58 73 1 93 73 2 56 39 74 92 45 53 86 95 17
